36
50
40	7
39	15
38	10
37	11
36	8
35	17
34	16
33	17
32	16
31	17
30	11
29	8
28	13
27	11
26	17
25	18
24	13
23	15
22	11
21	17
20	9
19	21
18	9
17	13
16	16
15	17
14	9
13	13
12	17
11	11
10	17
9	17
8	15
7	17
6	16
5	15
